<number of tasks>
89

<cycle time>
87

<task times>
1 28
2 17
3 7
4 10
5 12
6 16
7 13
8 8
9 13
10 24
11 16
12 24
13 12
14 20
15 22
16 22
17 22
18 47
19 6
20 12
21 6
22 22
23 7
24 14
25 68
26 15
27 8
28 74
29 32
30 11
31 18
32 15
33 42
34 27
35 38
36 38
37 26
38 35
39 31
40 8
41 14
42 8
43 8
44 8
45 17
46 7
47 19
48 12
49 24
50 26
51 22
52 14
53 27
54 60
55 4
56 2
57 1
58 9
59 5
60 6
61 7
62 12
63 2
64 11
65 14
66 6
67 21
68 14
69 1
70 6
71 21
72 11
73 14
74 28
75 12
76 11
77 30
78 22
79 14
80 31
81 18
82 16
83 7
84 38
85 8
86 31
87 29
88 12
89 18

<precedence relations>
1,2
2,3
3,4
4,5
4,6
4,7
4,8
4,9
5,10
6,11
7,12
8,18
9,18
10,14
11,12
12,13
13,14
14,15
14,16
15,17
16,54
17,18
18,19
18,20
19,22
20,21
20,28
21,54
22,23
23,24
24,25
25,26
25,27
25,29
26,37
27,33
28,29
29,31
30,54
31,32
32,33
33,34
34,35
35,36
35,37
36,38
37,38
38,39
39,40
39,41
39,42
39,43
40,44
41,53
42,53
43,45
44,52
45,46
46,47
47,48
47,49
49,50
50,51
51,52
52,53
53,68
53,69
53,70
53,71
54,55
55,56
56,57
57,58
57,59
57,60
57,61
57,62
57,63
57,64
57,65
57,66
58,67
59,67
60,67
61,67
62,67
63,67
64,67
65,67
66,67
67,73
68,72
69,72
70,72
71,73
72,78
72,80
73,74
74,75
74,76
75,77
76,81
77,78
78,79
79,81
80,81
81,82
81,84
81,85
82,83
83,86
84,86
85,86
86,87
87,88
87,89

<setup times forward>
1,30:1
2,30:1
3,30:1
4,5:5
4,7:5
4,9:2
4,30:1
5,6:5
5,8:5
5,9:7
5,10:7
5,30:4
6,5:5
6,7:5
6,9:2
6,10:2
6,11:5
6,30:1
7,6:5
7,8:5
7,9:7
7,10:7
7,30:4
8,5:5
8,7:5
8,9:2
8,10:2
8,11:5
8,12:5
8,13:5
8,14:2
8,15:2
8,16:1
8,17:2
8,18:2
8,30:1
9,5:7
9,6:2
9,7:7
9,8:2
9,11:7
9,12:7
9,13:7
9,16:3
9,17:4
9,18:4
9,30:3
10,6:2
10,7:7
10,8:2
10,11:7
10,12:7
10,13:7
10,30:3
11,8:5
11,9:7
11,10:7
11,30:4
12,8:5
12,9:7
12,10:7
12,30:4
13,8:5
13,9:7
13,10:7
13,14:7
13,30:4
14,8:2
14,16:3
14,30:3
15,8:2
15,16:3
15,17:4
15,30:3
16,8:1
16,9:3
16,15:3
16,17:1
16,18:1
16,19:1
16,20:1
16,25:4
16,26:5
16,27:4
16,28:1
16,29:5
16,31:5
16,32:5
16,33:3
16,34:3
16,35:7
16,36:7
16,37:2
16,38:2
16,39:1
16,40:3
16,41:8
16,42:1
16,43:1
16,44:8
16,45:1
16,46:3
16,47:3
16,48:3
16,49:3
16,50:3
16,51:8
16,52:8
16,53:8
16,54:2
16,68:7
16,69:7
16,70:7
16,71:7
16,72:7
16,80:7
17,8:2
17,9:4
17,16:1
17,30:1
18,16:1
18,30:1
19,16:1
19,21:1
19,22:1
19,28:2
19,30:1
19,54:1
19,55:1
19,56:1
19,57:1
19,58:3
19,59:3
19,60:4
19,61:3
19,62:4
19,63:3
19,64:8
19,65:1
19,66:1
20,16:1
20,21:1
20,22:1
20,23:1
20,24:1
20,25:5
20,26:6
20,27:5
20,28:2
20,30:1
21,19:1
21,25:4
21,26:5
21,27:4
21,28:1
21,29:5
21,31:5
21,32:5
21,33:3
21,34:3
21,35:7
21,36:7
21,37:2
21,38:2
21,39:1
21,40:3
21,41:8
21,42:1
21,43:1
21,44:8
21,45:1
21,46:3
21,47:3
21,48:3
21,49:3
21,50:3
21,51:8
21,52:8
21,53:8
21,54:2
21,68:7
21,69:7
21,70:7
21,71:7
21,72:7
21,80:7
22,20:1
22,28:1
22,54:2
22,55:2
22,56:2
22,57:2
22,58:2
22,59:2
22,60:3
22,61:2
22,62:3
22,63:2
22,64:7
22,65:2
22,66:2
22,67:1
23,20:1
23,28:1
23,54:2
23,55:2
23,56:2
23,57:2
23,58:2
23,59:2
23,60:3
23,61:2
23,62:3
23,63:2
23,64:7
23,65:2
23,66:2
23,67:1
24,20:1
24,25:4
24,28:1
24,54:2
24,55:2
24,56:2
24,57:2
24,58:2
24,59:2
24,60:3
24,61:2
24,62:3
24,63:2
24,64:7
24,65:2
24,66:2
24,67:1
25,16:4
25,20:5
25,21:4
25,26:1
25,28:3
25,29:1
25,30:4
25,54:6
25,55:6
25,56:6
25,57:6
25,58:2
25,59:2
25,60:1
25,61:2
25,62:1
25,63:2
25,64:3
25,65:6
25,66:6
25,67:5
26,16:5
26,20:6
26,21:5
26,27:1
26,28:4
26,30:5
26,33:2
26,34:2
26,35:2
26,36:2
26,37:3
26,54:7
26,55:7
26,56:7
26,57:7
26,58:3
26,59:3
26,60:2
26,61:3
26,62:2
26,63:3
26,64:2
26,65:7
26,66:7
26,67:6
27,16:4
27,20:5
27,21:4
27,26:1
27,28:3
27,29:1
27,30:4
27,31:1
27,32:1
27,33:1
27,54:6
27,55:6
27,56:6
27,57:6
27,58:2
27,59:2
27,60:1
27,61:2
27,62:1
27,63:2
27,64:3
27,65:6
27,66:6
27,67:5
28,16:1
28,19:2
28,21:1
28,22:1
28,23:1
28,24:1
28,25:3
28,26:4
28,27:3
28,29:4
28,30:1
28,54:3
28,55:3
28,56:3
28,57:3
28,58:1
28,59:1
28,60:2
28,61:1
28,62:2
28,63:1
28,64:6
28,65:3
28,66:3
28,67:2
29,16:5
29,21:5
29,27:1
29,30:5
29,54:7
29,55:7
29,56:7
29,57:7
29,58:3
29,59:3
29,60:2
29,61:3
29,62:2
29,63:3
29,64:2
29,65:7
29,66:7
29,67:6
30,1:1
30,2:1
30,3:1
30,4:1
30,5:4
30,6:1
30,7:4
30,8:1
30,9:3
30,10:3
30,11:4
30,12:4
30,13:4
30,14:3
30,15:3
30,17:1
30,18:1
30,19:1
30,20:1
30,25:4
30,26:5
30,27:4
30,28:1
30,29:5
30,31:5
30,32:5
30,33:3
30,34:3
30,35:7
30,36:7
30,37:2
30,38:2
30,39:1
30,40:3
30,41:8
30,42:1
30,43:1
30,44:8
30,45:1
30,46:3
30,47:3
30,48:3
30,49:3
30,50:3
30,51:8
30,52:8
30,53:8
30,54:2
30,68:7
30,69:7
30,70:7
30,71:7
30,72:7
30,80:7
31,16:5
31,21:5
31,27:1
31,30:5
31,54:7
31,55:7
31,56:7
31,57:7
31,58:3
31,59:3
31,60:2
31,61:3
31,62:2
31,63:3
31,64:2
31,65:7
31,66:7
31,67:6
32,16:5
32,21:5
32,27:1
32,30:5
32,33:2
32,54:7
32,55:7
32,56:7
32,57:7
32,58:3
32,59:3
32,60:2
32,61:3
32,62:2
32,63:3
32,64:2
32,65:7
32,66:7
32,67:6
33,16:3
33,21:3
33,26:2
33,30:3
33,54:5
33,55:5
33,56:5
33,57:5
33,58:1
33,59:1
33,61:1
33,63:1
33,64:4
33,65:5
33,66:5
33,67:4
34,16:3
34,21:3
34,26:2
34,30:3
34,35:4
34,54:5
34,55:5
34,56:5
34,57:5
34,58:1
34,59:1
34,61:1
34,63:1
34,64:4
34,65:5
34,66:5
34,67:4
35,16:7
35,21:7
35,26:2
35,30:7
35,37:5
35,54:9
35,55:9
35,56:9
35,57:9
35,58:5
35,59:5
35,60:4
35,61:5
35,62:4
35,63:5
35,65:9
35,66:9
35,67:8
36,16:7
36,21:7
36,26:2
36,30:7
36,37:5
36,38:5
36,54:9
36,55:9
36,56:9
36,57:9
36,58:5
36,59:5
36,60:4
36,61:5
36,62:4
36,63:5
36,65:9
36,66:9
36,67:8
37,16:2
37,21:2
37,30:2
37,36:5
37,54:4
37,55:4
37,56:4
37,57:4
37,60:1
37,62:1
37,64:5
37,65:4
37,66:4
37,67:3
38,16:2
38,21:2
38,30:2
38,39:3
38,54:4
38,55:4
38,56:4
38,57:4
38,60:1
38,62:1
38,64:5
38,65:4
38,66:4
38,67:3
39,16:1
39,21:1
39,30:1
39,40:2
39,41:9
39,54:1
39,55:1
39,56:1
39,57:1
39,58:3
39,59:3
39,60:4
39,61:3
39,62:4
39,63:3
39,64:8
39,65:1
39,66:1
40,16:3
40,21:3
40,30:3
40,41:11
40,42:2
40,43:2
40,44:11
40,45:2
40,51:11
40,54:1
40,55:1
40,56:1
40,57:1
40,58:5
40,59:5
40,60:6
40,61:5
40,62:6
40,63:5
40,64:10
40,65:1
40,66:1
40,67:2
41,16:8
41,21:8
41,30:8
41,40:11
41,42:9
41,43:9
41,45:9
41,46:11
41,47:11
41,48:11
41,49:11
41,50:11
41,54:10
41,55:10
41,56:10
41,57:10
41,58:6
41,59:6
41,60:5
41,61:6
41,62:5
41,63:6
41,64:1
41,65:10
41,66:10
41,67:9
42,16:1
42,21:1
42,30:1
42,40:2
42,41:9
42,44:9
42,46:2
42,47:2
42,48:2
42,49:2
42,50:2
42,51:9
42,52:9
42,53:9
42,54:1
42,55:1
42,56:1
42,57:1
42,58:3
42,59:3
42,60:4
42,61:3
42,62:4
42,63:3
42,64:8
42,65:1
42,66:1
43,16:1
43,21:1
43,30:1
43,40:2
43,41:9
43,44:9
43,54:1
43,55:1
43,56:1
43,57:1
43,58:3
43,59:3
43,60:4
43,61:3
43,62:4
43,63:3
43,64:8
43,65:1
43,66:1
44,16:8
44,21:8
44,30:8
44,42:9
44,43:9
44,45:9
44,46:11
44,47:11
44,48:11
44,49:11
44,50:11
44,54:10
44,55:10
44,56:10
44,57:10
44,58:6
44,59:6
44,60:5
44,61:6
44,62:5
44,63:6
44,64:1
44,65:10
44,66:10
44,67:9
45,16:1
45,21:1
45,30:1
45,40:2
45,41:9
45,44:9
45,46:2
45,54:1
45,55:1
45,56:1
45,57:1
45,58:3
45,59:3
45,60:4
45,61:3
45,62:4
45,63:3
45,64:8
45,65:1
45,66:1
46,16:3
46,21:3
46,30:3
46,41:11
46,42:2
46,44:11
46,54:1
46,55:1
46,56:1
46,57:1
46,58:5
46,59:5
46,60:6
46,61:5
46,62:6
46,63:5
46,64:10
46,65:1
46,66:1
46,67:2
47,16:3
47,21:3
47,30:3
47,41:11
47,42:2
47,44:11
47,54:1
47,55:1
47,56:1
47,57:1
47,58:5
47,59:5
47,60:6
47,61:5
47,62:6
47,63:5
47,64:10
47,65:1
47,66:1
47,67:2
48,16:3
48,21:3
48,30:3
48,41:11
48,42:2
48,44:11
48,51:11
48,52:11
48,53:11
48,54:1
48,55:1
48,56:1
48,57:1
48,58:5
48,59:5
48,60:6
48,61:5
48,62:6
48,63:5
48,64:10
48,65:1
48,66:1
48,67:2
48,68:10
48,69:10
48,70:10
48,71:10
48,72:10
48,73:1
48,74:1
48,75:1
48,76:5
48,77:1
48,78:5
48,79:5
48,80:10
48,81:5
48,82:5
48,83:3
48,84:3
48,85:3
48,86:3
49,16:3
49,21:3
49,30:3
49,41:11
49,42:2
49,44:11
49,54:1
49,55:1
49,56:1
49,57:1
49,58:5
49,59:5
49,60:6
49,61:5
49,62:6
49,63:5
49,64:10
49,65:1
49,66:1
49,67:2
50,16:3
50,21:3
50,30:3
50,41:11
50,42:2
50,44:11
50,51:11
50,54:1
50,55:1
50,56:1
50,57:1
50,58:5
50,59:5
50,60:6
50,61:5
50,62:6
50,63:5
50,64:10
50,65:1
50,66:1
50,67:2
51,16:8
51,21:8
51,30:8
51,40:11
51,42:9
51,48:11
51,54:10
51,55:10
51,56:10
51,57:10
51,58:6
51,59:6
51,60:5
51,61:6
51,62:5
51,63:6
51,64:1
51,65:10
51,66:10
51,67:9
52,16:8
52,21:8
52,30:8
52,42:9
52,48:11
52,54:10
52,55:10
52,56:10
52,57:10
52,58:6
52,59:6
52,60:5
52,61:6
52,62:5
52,63:6
52,64:1
52,65:10
52,66:10
52,67:9
53,16:8
53,21:8
53,30:8
53,48:11
53,54:10
53,55:10
53,56:10
53,57:10
53,58:6
53,59:6
53,60:5
53,61:6
53,62:5
53,63:6
53,64:1
53,65:10
53,66:10
53,67:9
53,68:1
53,69:1
53,70:1
53,71:1
54,19:1
54,22:2
54,23:2
54,24:2
54,25:6
54,26:7
54,27:6
54,28:3
54,29:7
54,31:7
54,32:7
54,33:5
54,34:5
54,35:9
54,36:9
54,37:4
54,38:4
54,39:1
54,40:1
54,41:10
54,42:1
54,43:1
54,44:10
54,45:1
54,46:1
54,47:1
54,48:1
54,49:1
54,50:1
54,51:10
54,52:10
54,53:10
54,68:9
54,69:9
54,70:9
54,71:9
54,72:9
54,80:9
55,19:1
55,22:2
55,23:2
55,24:2
55,25:6
55,26:7
55,27:6
55,28:3
55,29:7
55,31:7
55,32:7
55,33:5
55,34:5
55,35:9
55,36:9
55,37:4
55,38:4
55,39:1
55,40:1
55,41:10
55,42:1
55,43:1
55,44:10
55,45:1
55,46:1
55,47:1
55,48:1
55,49:1
55,50:1
55,51:10
55,52:10
55,53:10
55,68:9
55,69:9
55,70:9
55,71:9
55,72:9
55,80:9
56,19:1
56,22:2
56,23:2
56,24:2
56,25:6
56,26:7
56,27:6
56,28:3
56,29:7
56,31:7
56,32:7
56,33:5
56,34:5
56,35:9
56,36:9
56,37:4
56,38:4
56,39:1
56,40:1
56,41:10
56,42:1
56,43:1
56,44:10
56,45:1
56,46:1
56,47:1
56,48:1
56,49:1
56,50:1
56,51:10
56,52:10
56,53:10
56,68:9
56,69:9
56,70:9
56,71:9
56,72:9
56,80:9
57,19:1
57,22:2
57,23:2
57,24:2
57,25:6
57,26:7
57,27:6
57,28:3
57,29:7
57,31:7
57,32:7
57,33:5
57,34:5
57,35:9
57,36:9
57,37:4
57,38:4
57,39:1
57,40:1
57,41:10
57,42:1
57,43:1
57,44:10
57,45:1
57,46:1
57,47:1
57,48:1
57,49:1
57,50:1
57,51:10
57,52:10
57,53:10
57,58:4
57,59:4
57,60:5
57,61:4
57,62:5
57,63:4
57,64:9
57,68:9
57,69:9
57,70:9
57,71:9
57,72:9
57,80:9
58,19:3
58,22:2
58,23:2
58,24:2
58,25:2
58,26:3
58,27:2
58,28:1
58,29:3
58,31:3
58,32:3
58,33:1
58,34:1
58,35:5
58,36:5
58,39:3
58,40:5
58,41:6
58,42:3
58,43:3
58,44:6
58,45:3
58,46:5
58,47:5
58,48:5
58,49:5
58,50:5
58,51:6
58,52:6
58,53:6
58,60:1
58,62:1
58,64:5
58,65:4
58,66:4
58,67:3
58,68:5
58,69:5
58,70:5
58,71:5
58,72:5
58,80:5
59,19:3
59,22:2
59,23:2
59,24:2
59,25:2
59,26:3
59,27:2
59,28:1
59,29:3
59,31:3
59,32:3
59,33:1
59,34:1
59,35:5
59,36:5
59,39:3
59,40:5
59,41:6
59,42:3
59,43:3
59,44:6
59,45:3
59,46:5
59,47:5
59,48:5
59,49:5
59,50:5
59,51:6
59,52:6
59,53:6
59,60:1
59,62:1
59,64:5
59,65:4
59,66:4
59,67:3
59,68:5
59,69:5
59,70:5
59,71:5
59,72:5
59,80:5
60,19:4
60,22:3
60,23:3
60,24:3
60,25:1
60,26:2
60,27:1
60,28:2
60,29:2
60,31:2
60,32:2
60,35:4
60,36:4
60,37:1
60,38:1
60,39:4
60,40:6
60,41:5
60,42:4
60,43:4
60,44:5
60,45:4
60,46:6
60,47:6
60,48:6
60,49:6
60,50:6
60,51:5
60,52:5
60,53:5
60,58:1
60,59:1
60,61:1
60,63:1
60,64:4
60,65:5
60,66:5
60,67:4
60,68:4
60,69:4
60,70:4
60,71:4
60,72:4
60,80:4
61,19:3
61,22:2
61,23:2
61,24:2
61,25:2
61,26:3
61,27:2
61,28:1
61,29:3
61,31:3
61,32:3
61,33:1
61,34:1
61,35:5
61,36:5
61,39:3
61,40:5
61,41:6
61,42:3
61,43:3
61,44:6
61,45:3
61,46:5
61,47:5
61,48:5
61,49:5
61,50:5
61,51:6
61,52:6
61,53:6
61,60:1
61,62:1
61,64:5
61,65:4
61,66:4
61,67:3
61,68:5
61,69:5
61,70:5
61,71:5
61,72:5
61,80:5
62,19:4
62,22:3
62,23:3
62,24:3
62,25:1
62,26:2
62,27:1
62,28:2
62,29:2
62,31:2
62,32:2
62,35:4
62,36:4
62,37:1
62,38:1
62,39:4
62,40:6
62,41:5
62,42:4
62,43:4
62,44:5
62,45:4
62,46:6
62,47:6
62,48:6
62,49:6
62,50:6
62,51:5
62,52:5
62,53:5
62,58:1
62,59:1
62,61:1
62,63:1
62,64:4
62,65:5
62,66:5
62,67:4
62,68:4
62,69:4
62,70:4
62,71:4
62,72:4
62,80:4
63,19:3
63,22:2
63,23:2
63,24:2
63,25:2
63,26:3
63,27:2
63,28:1
63,29:3
63,31:3
63,32:3
63,33:1
63,34:1
63,35:5
63,36:5
63,39:3
63,40:5
63,41:6
63,42:3
63,43:3
63,44:6
63,45:3
63,46:5
63,47:5
63,48:5
63,49:5
63,50:5
63,51:6
63,52:6
63,53:6
63,60:1
63,62:1
63,64:5
63,65:4
63,66:4
63,67:3
63,68:5
63,69:5
63,70:5
63,71:5
63,72:5
63,80:5
64,19:8
64,22:7
64,23:7
64,24:7
64,25:3
64,26:2
64,27:3
64,28:6
64,29:2
64,31:2
64,32:2
64,33:4
64,34:4
64,37:5
64,38:5
64,39:8
64,40:10
64,41:1
64,42:8
64,43:8
64,44:1
64,45:8
64,46:10
64,47:10
64,48:10
64,49:10
64,50:10
64,51:1
64,52:1
64,53:1
64,58:5
64,59:5
64,60:4
64,61:5
64,62:4
64,63:5
64,65:9
64,66:9
64,67:8
65,19:1
65,22:2
65,23:2
65,24:2
65,25:6
65,26:7
65,27:6
65,28:3
65,29:7
65,31:7
65,32:7
65,33:5
65,34:5
65,35:9
65,36:9
65,37:4
65,38:4
65,39:1
65,40:1
65,41:10
65,42:1
65,43:1
65,44:10
65,45:1
65,46:1
65,47:1
65,48:1
65,49:1
65,50:1
65,51:10
65,52:10
65,53:10
65,58:4
65,59:4
65,60:5
65,61:4
65,62:5
65,63:4
65,64:9
65,67:1
65,68:9
65,69:9
65,70:9
65,71:9
65,72:9
65,80:9
66,19:1
66,22:2
66,23:2
66,24:2
66,25:6
66,26:7
66,27:6
66,28:3
66,29:7
66,31:7
66,32:7
66,33:5
66,34:5
66,35:9
66,36:9
66,37:4
66,38:4
66,39:1
66,40:1
66,41:10
66,42:1
66,43:1
66,44:10
66,45:1
66,46:1
66,47:1
66,48:1
66,49:1
66,50:1
66,51:10
66,52:10
66,53:10
66,58:4
66,59:4
66,60:5
66,61:4
66,62:5
66,63:4
66,64:9
66,67:1
66,68:9
66,69:9
66,70:9
66,71:9
66,72:9
66,80:9
67,22:1
67,23:1
67,24:1
67,25:5
67,26:6
67,27:5
67,28:2
67,29:6
67,31:6
67,32:6
67,33:4
67,34:4
67,35:8
67,36:8
67,37:3
67,38:3
67,40:2
67,41:9
67,44:9
67,46:2
67,47:2
67,48:2
67,49:2
67,50:2
67,51:9
67,52:9
67,53:9
67,68:8
67,69:8
67,70:8
67,71:8
67,72:8
67,73:3
67,80:8
68,16:7
68,21:7
68,30:7
68,48:10
68,54:9
68,55:9
68,56:9
68,57:9
68,58:5
68,59:5
68,60:4
68,61:5
68,62:4
68,63:5
68,65:9
68,66:9
68,67:8
68,73:11
68,74:11
68,75:11
68,76:5
68,77:11
69,16:7
69,21:7
69,30:7
69,48:10
69,54:9
69,55:9
69,56:9
69,57:9
69,58:5
69,59:5
69,60:4
69,61:5
69,62:4
69,63:5
69,65:9
69,66:9
69,67:8
69,73:11
69,74:11
69,75:11
69,76:5
69,77:11
70,16:7
70,21:7
70,30:7
70,48:10
70,54:9
70,55:9
70,56:9
70,57:9
70,58:5
70,59:5
70,60:4
70,61:5
70,62:4
70,63:5
70,65:9
70,66:9
70,67:8
70,73:11
70,74:11
70,75:11
70,76:5
70,77:11
71,16:7
71,21:7
71,30:7
71,48:10
71,54:9
71,55:9
71,56:9
71,57:9
71,58:5
71,59:5
71,60:4
71,61:5
71,62:4
71,63:5
71,65:9
71,66:9
71,67:8
71,73:11
72,16:7
72,21:7
72,30:7
72,48:10
72,54:9
72,55:9
72,56:9
72,57:9
72,58:5
72,59:5
72,60:4
72,61:5
72,62:4
72,63:5
72,65:9
72,66:9
72,67:8
72,73:11
72,74:11
72,75:11
72,76:5
72,77:11
72,78:5
73,48:1
73,68:11
73,69:11
73,70:11
73,72:11
73,80:11
74,48:1
74,68:11
74,69:11
74,70:11
74,72:11
74,76:6
74,80:11
75,48:1
75,68:11
75,69:11
75,70:11
75,72:11
75,76:6
75,80:11
76,48:5
76,68:5
76,69:5
76,70:5
76,72:5
76,75:6
76,77:6
76,80:5
77,48:1
77,68:11
77,69:11
77,70:11
77,72:11
77,76:6
77,78:6
77,80:11
78,48:5
78,80:5
79,48:5
79,80:5
80,16:7
80,21:7
80,30:7
80,48:10
80,54:9
80,55:9
80,56:9
80,57:9
80,58:5
80,59:5
80,60:4
80,61:5
80,62:4
80,63:5
80,65:9
80,66:9
80,67:8
80,73:11
80,74:11
80,75:11
80,76:5
80,77:11
80,78:5
80,79:5
80,81:5
81,48:5
81,84:2
81,85:2
82,48:5
82,83:2
82,84:2
82,85:2
83,48:3
84,48:3
84,82:2
85,48:3
85,82:2
86,48:3
86,87:3

<setup times backward>
5,1:5
5,2:5
5,3:5
5,4:5
5,6:5
5,8:5
5,9:7
5,30:4
6,9:2
6,10:2
7,1:5
7,2:5
7,3:5
7,4:5
7,6:5
7,8:5
7,9:7
7,10:7
7,30:4
8,9:2
8,10:2
8,14:2
8,15:2
11,1:5
11,2:5
11,3:5
11,4:5
11,6:5
11,8:5
11,9:7
11,10:7
11,30:4
12,1:5
12,2:5
12,3:5
12,4:5
12,6:5
12,8:5
12,9:7
12,10:7
12,30:4
13,1:5
13,2:5
13,3:5
13,4:5
13,6:5
13,8:5
13,9:7
13,10:7
13,30:4
16,1:1
16,2:1
16,3:1
16,4:1
16,6:1
16,8:1
16,9:3
16,10:3
16,14:3
16,15:3
16,25:4
16,26:5
16,27:4
16,28:1
16,29:5
16,31:5
16,32:5
16,33:3
16,34:3
16,35:7
16,36:7
16,37:2
16,38:2
16,41:8
16,44:8
16,51:8
16,52:8
16,53:8
16,68:7
16,69:7
16,70:7
16,71:7
16,72:7
16,80:7
17,1:2
17,2:2
17,3:2
17,4:2
17,6:2
17,8:2
17,9:4
17,10:4
17,14:4
17,15:4
17,16:1
17,30:1
18,1:2
18,2:2
18,3:2
18,4:2
18,6:2
18,8:2
18,9:4
18,10:4
18,14:4
18,15:4
18,16:1
18,30:1
19,1:2
19,2:2
19,3:2
19,4:2
19,6:2
19,8:2
19,9:4
19,10:4
19,14:4
19,15:4
19,16:1
19,21:1
19,28:2
19,30:1
19,58:3
19,59:3
19,60:4
19,61:3
19,62:4
19,63:3
19,64:8
20,1:2
20,2:2
20,3:2
20,4:2
20,6:2
20,8:2
20,9:4
20,10:4
20,14:4
20,15:4
20,16:1
20,22:1
20,23:1
20,24:1
20,25:5
20,26:6
20,27:5
20,30:1
21,1:1
21,2:1
21,3:1
21,4:1
21,6:1
21,8:1
21,9:3
21,10:3
21,14:3
21,15:3
21,25:4
21,26:5
21,27:4
21,28:1
21,29:5
21,31:5
21,32:5
21,33:3
21,34:3
21,35:7
21,36:7
21,37:2
21,38:2
21,41:8
21,44:8
21,51:8
21,52:8
21,53:8
21,68:7
21,69:7
21,70:7
21,71:7
21,72:7
21,80:7
22,1:1
22,2:1
22,3:1
22,4:1
22,6:1
22,8:1
22,9:3
22,10:3
22,14:3
22,15:3
22,28:1
22,58:2
22,59:2
22,60:3
22,61:2
22,62:3
22,63:2
22,64:7
23,1:1
23,2:1
23,3:1
23,4:1
23,6:1
23,8:1
23,9:3
23,10:3
23,14:3
23,15:3
23,28:1
23,58:2
23,59:2
23,60:3
23,61:2
23,62:3
23,63:2
23,64:7
24,1:1
24,2:1
24,3:1
24,4:1
24,6:1
24,8:1
24,9:3
24,10:3
24,14:3
24,15:3
24,28:1
24,58:2
24,59:2
24,60:3
24,61:2
24,62:3
24,63:2
24,64:7
25,64:3
26,35:2
26,36:2
26,64:2
27,26:1
27,29:1
27,31:1
27,32:1
27,64:3
28,9:2
28,10:2
28,14:2
28,15:2
28,25:3
28,26:4
28,27:3
28,58:1
28,59:1
28,60:2
28,61:1
28,62:2
28,63:1
28,64:6
29,64:2
30,1:1
30,2:1
30,3:1
30,4:1
30,6:1
30,8:1
30,9:3
30,10:3
30,14:3
30,15:3
30,25:4
30,26:5
30,27:4
30,28:1
30,29:5
30,31:5
30,32:5
30,33:3
30,34:3
30,35:7
30,36:7
30,37:2
30,38:2
30,41:8
30,44:8
30,51:8
30,52:8
30,53:8
30,68:7
30,69:7
30,70:7
30,71:7
30,72:7
30,80:7
31,64:2
32,64:2
33,25:1
33,26:2
33,27:1
33,29:2
33,31:2
33,32:2
33,64:4
34,25:1
34,26:2
34,27:1
34,29:2
34,31:2
34,32:2
34,64:4
37,9:1
37,10:1
37,14:1
37,15:1
37,25:2
37,26:3
37,27:2
37,29:3
37,31:3
37,32:3
37,33:1
37,34:1
37,35:5
37,36:5
37,60:1
37,62:1
37,64:5
38,9:1
38,10:1
38,14:1
38,15:1
38,25:2
38,26:3
38,27:2
38,29:3
38,31:3
38,32:3
38,33:1
38,34:1
38,35:5
38,36:5
38,60:1
38,62:1
38,64:5
39,1:2
39,2:2
39,3:2
39,4:2
39,6:2
39,8:2
39,9:4
39,10:4
39,14:4
39,15:4
39,16:1
39,21:1
39,22:1
39,23:1
39,24:1
39,25:5
39,26:6
39,27:5
39,28:2
39,29:6
39,30:1
39,31:6
39,32:6
39,33:4
39,34:4
39,35:8
39,36:8
39,37:3
39,38:3
39,58:3
39,59:3
39,60:4
39,61:3
39,62:4
39,63:3
39,64:8
40,1:4
40,2:4
40,3:4
40,4:4
40,6:4
40,8:4
40,9:6
40,10:6
40,14:6
40,15:6
40,16:3
40,17:2
40,18:2
40,19:2
40,20:2
40,21:3
40,22:3
40,23:3
40,24:3
40,25:7
40,26:8
40,27:7
40,28:4
40,29:8
40,30:3
40,31:8
40,32:8
40,33:6
40,34:6
40,35:10
40,36:10
40,37:5
40,38:5
40,39:2
40,41:11
40,42:2
40,43:2
40,45:2
40,51:11
40,54:1
40,55:1
40,56:1
40,57:1
40,58:5
40,59:5
40,60:6
40,61:5
40,62:6
40,63:5
40,64:10
40,65:1
40,66:1
40,67:2
42,1:2
42,2:2
42,3:2
42,4:2
42,6:2
42,8:2
42,9:4
42,10:4
42,14:4
42,15:4
42,16:1
42,21:1
42,22:1
42,23:1
42,24:1
42,25:5
42,26:6
42,27:5
42,28:2
42,29:6
42,30:1
42,31:6
42,32:6
42,33:4
42,34:4
42,35:8
42,36:8
42,37:3
42,38:3
42,41:9
42,44:9
42,51:9
42,52:9
42,58:3
42,59:3
42,60:4
42,61:3
42,62:4
42,63:3
42,64:8
43,1:2
43,2:2
43,3:2
43,4:2
43,6:2
43,8:2
43,9:4
43,10:4
43,14:4
43,15:4
43,16:1
43,21:1
43,22:1
43,23:1
43,24:1
43,25:5
43,26:6
43,27:5
43,28:2
43,29:6
43,30:1
43,31:6
43,32:6
43,33:4
43,34:4
43,35:8
43,36:8
43,37:3
43,38:3
43,41:9
43,44:9
43,58:3
43,59:3
43,60:4
43,61:3
43,62:4
43,63:3
43,64:8
45,1:2
45,2:2
45,3:2
45,4:2
45,6:2
45,8:2
45,9:4
45,10:4
45,14:4
45,15:4
45,16:1
45,21:1
45,22:1
45,23:1
45,24:1
45,25:5
45,26:6
45,27:5
45,28:2
45,29:6
45,30:1
45,31:6
45,32:6
45,33:4
45,34:4
45,35:8
45,36:8
45,37:3
45,38:3
45,41:9
45,44:9
45,58:3
45,59:3
45,60:4
45,61:3
45,62:4
45,63:3
45,64:8
46,1:4
46,2:4
46,3:4
46,4:4
46,6:4
46,8:4
46,9:6
46,10:6
46,14:6
46,15:6
46,16:3
46,17:2
46,18:2
46,19:2
46,20:2
46,21:3
46,22:3
46,23:3
46,24:3
46,25:7
46,26:8
46,27:7
46,28:4
46,29:8
46,30:3
46,31:8
46,32:8
46,33:6
46,34:6
46,35:10
46,36:10
46,37:5
46,38:5
46,39:2
46,41:11
46,42:2
46,43:2
46,44:11
46,45:2
46,54:1
46,55:1
46,56:1
46,57:1
46,58:5
46,59:5
46,60:6
46,61:5
46,62:6
46,63:5
46,64:10
46,65:1
46,66:1
46,67:2
47,1:4
47,2:4
47,3:4
47,4:4
47,6:4
47,8:4
47,9:6
47,10:6
47,14:6
47,15:6
47,16:3
47,17:2
47,18:2
47,19:2
47,20:2
47,21:3
47,22:3
47,23:3
47,24:3
47,25:7
47,26:8
47,27:7
47,28:4
47,29:8
47,30:3
47,31:8
47,32:8
47,33:6
47,34:6
47,35:10
47,36:10
47,37:5
47,38:5
47,39:2
47,41:11
47,42:2
47,43:2
47,44:11
47,45:2
47,54:1
47,55:1
47,56:1
47,57:1
47,58:5
47,59:5
47,60:6
47,61:5
47,62:6
47,63:5
47,64:10
47,65:1
47,66:1
47,67:2
48,1:4
48,2:4
48,3:4
48,4:4
48,6:4
48,8:4
48,9:6
48,10:6
48,14:6
48,15:6
48,16:3
48,17:2
48,18:2
48,19:2
48,20:2
48,21:3
48,22:3
48,23:3
48,24:3
48,25:7
48,26:8
48,27:7
48,28:4
48,29:8
48,30:3
48,31:8
48,32:8
48,33:6
48,34:6
48,35:10
48,36:10
48,37:5
48,38:5
48,39:2
48,41:11
48,42:2
48,43:2
48,44:11
48,45:2
48,51:11
48,52:11
48,53:11
48,54:1
48,55:1
48,56:1
48,57:1
48,58:5
48,59:5
48,60:6
48,61:5
48,62:6
48,63:5
48,64:10
48,65:1
48,66:1
48,67:2
48,68:10
48,69:10
48,70:10
48,71:10
48,72:10
48,76:5
48,78:5
48,79:5
48,80:10
48,81:5
48,82:5
48,83:3
48,84:3
48,85:3
48,86:3
49,1:4
49,2:4
49,3:4
49,4:4
49,6:4
49,8:4
49,9:6
49,10:6
49,14:6
49,15:6
49,16:3
49,17:2
49,18:2
49,19:2
49,20:2
49,21:3
49,22:3
49,23:3
49,24:3
49,25:7
49,26:8
49,27:7
49,28:4
49,29:8
49,30:3
49,31:8
49,32:8
49,33:6
49,34:6
49,35:10
49,36:10
49,37:5
49,38:5
49,39:2
49,41:11
49,42:2
49,43:2
49,44:11
49,45:2
49,54:1
49,55:1
49,56:1
49,57:1
49,58:5
49,59:5
49,60:6
49,61:5
49,62:6
49,63:5
49,64:10
49,65:1
49,66:1
49,67:2
50,1:4
50,2:4
50,3:4
50,4:4
50,6:4
50,8:4
50,9:6
50,10:6
50,14:6
50,15:6
50,16:3
50,17:2
50,18:2
50,19:2
50,20:2
50,21:3
50,22:3
50,23:3
50,24:3
50,25:7
50,26:8
50,27:7
50,28:4
50,29:8
50,30:3
50,31:8
50,32:8
50,33:6
50,34:6
50,35:10
50,36:10
50,37:5
50,38:5
50,39:2
50,41:11
50,42:2
50,43:2
50,44:11
50,45:2
50,54:1
50,55:1
50,56:1
50,57:1
50,58:5
50,59:5
50,60:6
50,61:5
50,62:6
50,63:5
50,64:10
50,65:1
50,66:1
50,67:2
54,1:3
54,2:3
54,3:3
54,4:3
54,6:3
54,8:3
54,9:5
54,10:5
54,14:5
54,15:5
54,16:2
54,17:1
54,18:1
54,19:1
54,20:1
54,21:2
54,22:2
54,23:2
54,24:2
54,25:6
54,26:7
54,27:6
54,28:3
54,29:7
54,30:2
54,31:7
54,32:7
54,33:5
54,34:5
54,35:9
54,36:9
54,37:4
54,38:4
54,39:1
54,41:10
54,42:1
54,43:1
54,44:10
54,45:1
54,51:10
54,52:10
54,53:10
54,68:9
54,69:9
54,70:9
54,71:9
54,72:9
54,80:9
55,1:3
55,2:3
55,3:3
55,4:3
55,6:3
55,8:3
55,9:5
55,10:5
55,14:5
55,15:5
55,16:2
55,17:1
55,18:1
55,19:1
55,20:1
55,21:2
55,22:2
55,23:2
55,24:2
55,25:6
55,26:7
55,27:6
55,28:3
55,29:7
55,30:2
55,31:7
55,32:7
55,33:5
55,34:5
55,35:9
55,36:9
55,37:4
55,38:4
55,39:1
55,41:10
55,42:1
55,43:1
55,44:10
55,45:1
55,51:10
55,52:10
55,53:10
55,68:9
55,69:9
55,70:9
55,71:9
55,72:9
55,80:9
56,1:3
56,2:3
56,3:3
56,4:3
56,6:3
56,8:3
56,9:5
56,10:5
56,14:5
56,15:5
56,16:2
56,17:1
56,18:1
56,19:1
56,20:1
56,21:2
56,22:2
56,23:2
56,24:2
56,25:6
56,26:7
56,27:6
56,28:3
56,29:7
56,30:2
56,31:7
56,32:7
56,33:5
56,34:5
56,35:9
56,36:9
56,37:4
56,38:4
56,39:1
56,41:10
56,42:1
56,43:1
56,44:10
56,45:1
56,51:10
56,52:10
56,53:10
56,68:9
56,69:9
56,70:9
56,71:9
56,72:9
56,80:9
57,1:3
57,2:3
57,3:3
57,4:3
57,6:3
57,8:3
57,9:5
57,10:5
57,14:5
57,15:5
57,16:2
57,17:1
57,18:1
57,19:1
57,20:1
57,21:2
57,22:2
57,23:2
57,24:2
57,25:6
57,26:7
57,27:6
57,28:3
57,29:7
57,30:2
57,31:7
57,32:7
57,33:5
57,34:5
57,35:9
57,36:9
57,37:4
57,38:4
57,39:1
57,41:10
57,42:1
57,43:1
57,44:10
57,45:1
57,51:10
57,52:10
57,53:10
57,68:9
57,69:9
57,70:9
57,71:9
57,72:9
57,80:9
58,9:1
58,10:1
58,14:1
58,15:1
58,25:2
58,26:3
58,27:2
58,29:3
58,31:3
58,32:3
58,33:1
58,34:1
58,35:5
58,36:5
58,41:6
58,44:6
58,51:6
58,52:6
58,53:6
58,60:1
58,62:1
58,64:5
58,68:5
58,69:5
58,70:5
58,71:5
58,72:5
58,80:5
59,9:1
59,10:1
59,14:1
59,15:1
59,25:2
59,26:3
59,27:2
59,29:3
59,31:3
59,32:3
59,33:1
59,34:1
59,35:5
59,36:5
59,41:6
59,44:6
59,51:6
59,52:6
59,53:6
59,60:1
59,62:1
59,64:5
59,68:5
59,69:5
59,70:5
59,71:5
59,72:5
59,80:5
60,25:1
60,26:2
60,27:1
60,29:2
60,31:2
60,32:2
60,35:4
60,36:4
60,41:5
60,44:5
60,51:5
60,52:5
60,53:5
60,64:4
60,68:4
60,69:4
60,70:4
60,71:4
60,72:4
60,80:4
61,9:1
61,10:1
61,14:1
61,15:1
61,25:2
61,26:3
61,27:2
61,29:3
61,31:3
61,32:3
61,33:1
61,34:1
61,35:5
61,36:5
61,41:6
61,44:6
61,51:6
61,52:6
61,53:6
61,60:1
61,62:1
61,64:5
61,68:5
61,69:5
61,70:5
61,71:5
61,72:5
61,80:5
62,25:1
62,26:2
62,27:1
62,29:2
62,31:2
62,32:2
62,35:4
62,36:4
62,41:5
62,44:5
62,51:5
62,52:5
62,53:5
62,64:4
62,68:4
62,69:4
62,70:4
62,71:4
62,72:4
62,80:4
63,9:1
63,10:1
63,14:1
63,15:1
63,25:2
63,26:3
63,27:2
63,29:3
63,31:3
63,32:3
63,33:1
63,34:1
63,35:5
63,36:5
63,41:6
63,44:6
63,51:6
63,52:6
63,53:6
63,60:1
63,62:1
63,64:5
63,68:5
63,69:5
63,70:5
63,71:5
63,72:5
63,80:5
64,41:1
64,44:1
64,51:1
64,52:1
64,53:1
65,1:3
65,2:3
65,3:3
65,4:3
65,6:3
65,8:3
65,9:5
65,10:5
65,14:5
65,15:5
65,16:2
65,17:1
65,18:1
65,19:1
65,20:1
65,21:2
65,22:2
65,23:2
65,24:2
65,25:6
65,26:7
65,27:6
65,28:3
65,29:7
65,30:2
65,31:7
65,32:7
65,33:5
65,34:5
65,35:9
65,36:9
65,37:4
65,38:4
65,39:1
65,41:10
65,42:1
65,43:1
65,44:10
65,45:1
65,51:10
65,52:10
65,53:10
65,58:4
65,59:4
65,60:5
65,61:4
65,62:5
65,63:4
65,64:9
65,68:9
65,69:9
65,70:9
65,71:9
65,72:9
65,80:9
66,1:3
66,2:3
66,3:3
66,4:3
66,6:3
66,8:3
66,9:5
66,10:5
66,14:5
66,15:5
66,16:2
66,17:1
66,18:1
66,19:1
66,20:1
66,21:2
66,22:2
66,23:2
66,24:2
66,25:6
66,26:7
66,27:6
66,28:3
66,29:7
66,30:2
66,31:7
66,32:7
66,33:5
66,34:5
66,35:9
66,36:9
66,37:4
66,38:4
66,39:1
66,41:10
66,42:1
66,43:1
66,44:10
66,45:1
66,51:10
66,52:10
66,53:10
66,58:4
66,59:4
66,60:5
66,61:4
66,62:5
66,63:4
66,64:9
66,68:9
66,69:9
66,70:9
66,71:9
66,72:9
66,80:9
67,1:2
67,2:2
67,3:2
67,4:2
67,6:2
67,8:2
67,9:4
67,10:4
67,14:4
67,15:4
67,16:1
67,21:1
67,22:1
67,23:1
67,24:1
67,25:5
67,26:6
67,27:5
67,28:2
67,29:6
67,30:1
67,31:6
67,32:6
67,33:4
67,34:4
67,35:8
67,36:8
67,37:3
67,38:3
67,41:9
67,44:9
67,51:9
67,52:9
67,53:9
67,58:3
67,59:3
67,60:4
67,61:3
67,62:4
67,63:3
67,64:8
67,68:8
67,69:8
67,70:8
67,71:8
67,72:8
67,80:8
68,41:1
68,44:1
68,51:1
68,52:1
68,53:1
69,41:1
69,44:1
69,51:1
69,52:1
69,53:1
70,41:1
70,44:1
70,51:1
70,52:1
70,53:1
71,41:1
71,44:1
71,51:1
71,52:1
71,53:1
72,41:1
72,44:1
72,51:1
72,52:1
72,53:1
73,1:5
73,2:5
73,3:5
73,4:5
73,6:5
73,8:5
73,9:7
73,10:7
73,14:7
73,15:7
73,16:4
73,17:3
73,18:3
73,19:3
73,20:3
73,21:4
73,22:4
73,23:4
73,24:4
73,25:8
73,26:9
73,27:8
73,28:5
73,29:9
73,30:4
73,31:9
73,32:9
73,33:7
73,34:7
73,35:11
73,36:11
73,37:6
73,38:6
73,39:3
73,40:1
73,41:12
73,42:3
73,43:3
73,44:12
73,45:3
73,46:1
73,47:1
73,48:1
73,49:1
73,50:1
73,51:12
73,52:12
73,53:12
73,54:2
73,55:2
73,56:2
73,57:2
73,58:6
73,59:6
73,60:7
73,61:6
73,62:7
73,63:6
73,64:11
73,65:2
73,66:2
73,67:3
73,68:11
73,69:11
73,70:11
73,71:11
73,72:11
73,80:11
74,1:5
74,2:5
74,3:5
74,4:5
74,6:5
74,8:5
74,9:7
74,10:7
74,14:7
74,15:7
74,16:4
74,17:3
74,18:3
74,19:3
74,20:3
74,21:4
74,22:4
74,23:4
74,24:4
74,25:8
74,26:9
74,27:8
74,28:5
74,29:9
74,30:4
74,31:9
74,32:9
74,33:7
74,34:7
74,35:11
74,36:11
74,37:6
74,38:6
74,39:3
74,40:1
74,41:12
74,42:3
74,43:3
74,44:12
74,45:3
74,46:1
74,47:1
74,48:1
74,49:1
74,50:1
74,51:12
74,52:12
74,53:12
74,54:2
74,55:2
74,56:2
74,57:2
74,58:6
74,59:6
74,60:7
74,61:6
74,62:7
74,63:6
74,64:11
74,65:2
74,66:2
74,67:3
74,68:11
74,69:11
74,70:11
74,71:11
74,72:11
74,80:11
75,1:5
75,2:5
75,3:5
75,4:5
75,6:5
75,8:5
75,9:7
75,10:7
75,14:7
75,15:7
75,16:4
75,17:3
75,18:3
75,19:3
75,20:3
75,21:4
75,22:4
75,23:4
75,24:4
75,25:8
75,26:9
75,27:8
75,28:5
75,29:9
75,30:4
75,31:9
75,32:9
75,33:7
75,34:7
75,35:11
75,36:11
75,37:6
75,38:6
75,39:3
75,40:1
75,41:12
75,42:3
75,43:3
75,44:12
75,45:3
75,46:1
75,47:1
75,48:1
75,49:1
75,50:1
75,51:12
75,52:12
75,53:12
75,54:2
75,55:2
75,56:2
75,57:2
75,58:6
75,59:6
75,60:7
75,61:6
75,62:7
75,63:6
75,64:11
75,65:2
75,66:2
75,67:3
75,68:11
75,69:11
75,70:11
75,71:11
75,72:11
75,76:6
75,80:11
76,9:1
76,10:1
76,14:1
76,15:1
76,25:2
76,26:3
76,27:2
76,29:3
76,31:3
76,32:3
76,33:1
76,34:1
76,35:5
76,36:5
76,41:6
76,44:6
76,51:6
76,52:6
76,53:6
76,60:1
76,62:1
76,64:5
76,68:5
76,69:5
76,70:5
76,71:5
76,72:5
76,80:5
77,1:5
77,2:5
77,3:5
77,4:5
77,6:5
77,8:5
77,9:7
77,10:7
77,14:7
77,15:7
77,16:4
77,17:3
77,18:3
77,19:3
77,20:3
77,21:4
77,22:4
77,23:4
77,24:4
77,25:8
77,26:9
77,27:8
77,28:5
77,29:9
77,30:4
77,31:9
77,32:9
77,33:7
77,34:7
77,35:11
77,36:11
77,37:6
77,38:6
77,39:3
77,40:1
77,41:12
77,42:3
77,43:3
77,44:12
77,45:3
77,46:1
77,47:1
77,48:1
77,49:1
77,50:1
77,51:12
77,52:12
77,53:12
77,54:2
77,55:2
77,56:2
77,57:2
77,58:6
77,59:6
77,60:7
77,61:6
77,62:7
77,63:6
77,64:11
77,65:2
77,66:2
77,67:3
77,68:11
77,69:11
77,70:11
77,71:11
77,72:11
77,76:6
77,80:11
78,9:1
78,10:1
78,14:1
78,15:1
78,25:2
78,26:3
78,27:2
78,29:3
78,31:3
78,32:3
78,33:1
78,34:1
78,35:5
78,36:5
78,41:6
78,44:6
78,51:6
78,52:6
78,53:6
78,60:1
78,62:1
78,64:5
78,68:5
78,69:5
78,70:5
78,71:5
78,72:5
78,80:5
79,9:1
79,10:1
79,14:1
79,15:1
79,25:2
79,26:3
79,27:2
79,29:3
79,31:3
79,32:3
79,33:1
79,34:1
79,35:5
79,36:5
79,41:6
79,44:6
79,51:6
79,52:6
79,53:6
79,60:1
79,62:1
79,64:5
79,68:5
79,69:5
79,70:5
79,71:5
79,72:5
79,80:5
80,41:1
80,44:1
80,51:1
80,52:1
80,53:1
81,9:1
81,10:1
81,14:1
81,15:1
81,25:2
81,26:3
81,27:2
81,29:3
81,31:3
81,32:3
81,33:1
81,34:1
81,35:5
81,36:5
81,41:6
81,44:6
81,51:6
81,52:6
81,53:6
81,60:1
81,62:1
81,64:5
81,68:5
81,69:5
81,70:5
81,71:5
81,72:5
81,80:5
82,9:1
82,10:1
82,14:1
82,15:1
82,25:2
82,26:3
82,27:2
82,29:3
82,31:3
82,32:3
82,33:1
82,34:1
82,35:5
82,36:5
82,41:6
82,44:6
82,51:6
82,52:6
82,53:6
82,60:1
82,62:1
82,64:5
82,68:5
82,69:5
82,70:5
82,71:5
82,72:5
82,80:5
83,1:1
83,2:1
83,3:1
83,4:1
83,6:1
83,8:1
83,9:3
83,10:3
83,14:3
83,15:3
83,25:4
83,26:5
83,27:4
83,28:1
83,29:5
83,31:5
83,32:5
83,33:3
83,34:3
83,35:7
83,36:7
83,37:2
83,38:2
83,41:8
83,44:8
83,51:8
83,52:8
83,53:8
83,58:2
83,59:2
83,60:3
83,61:2
83,62:3
83,63:2
83,64:7
83,68:7
83,69:7
83,70:7
83,71:7
83,72:7
83,76:2
83,78:2
83,79:2
83,80:7
83,81:2
83,82:2
84,1:1
84,2:1
84,3:1
84,4:1
84,6:1
84,8:1
84,9:3
84,10:3
84,14:3
84,15:3
84,25:4
84,26:5
84,27:4
84,28:1
84,29:5
84,31:5
84,32:5
84,33:3
84,34:3
84,35:7
84,36:7
84,37:2
84,38:2
84,41:8
84,44:8
84,51:8
84,52:8
84,53:8
84,58:2
84,59:2
84,60:3
84,61:2
84,62:3
84,63:2
84,64:7
84,68:7
84,69:7
84,70:7
84,71:7
84,72:7
84,76:2
84,78:2
84,79:2
84,80:7
84,81:2
84,82:2
85,1:1
85,2:1
85,3:1
85,4:1
85,6:1
85,8:1
85,9:3
85,10:3
85,14:3
85,15:3
85,25:4
85,26:5
85,27:4
85,28:1
85,29:5
85,31:5
85,32:5
85,33:3
85,34:3
85,35:7
85,36:7
85,37:2
85,38:2
85,41:8
85,44:8
85,51:8
85,52:8
85,53:8
85,58:2
85,59:2
85,60:3
85,61:2
85,62:3
85,63:2
85,64:7
85,68:7
85,69:7
85,70:7
85,71:7
85,72:7
85,76:2
85,78:2
85,79:2
85,80:7
85,81:2
85,82:2
86,1:1
86,2:1
86,3:1
86,4:1
86,6:1
86,8:1
86,9:3
86,10:3
86,14:3
86,15:3
86,25:4
86,26:5
86,27:4
86,28:1
86,29:5
86,31:5
86,32:5
86,33:3
86,34:3
86,35:7
86,36:7
86,37:2
86,38:2
86,41:8
86,44:8
86,51:8
86,52:8
86,53:8
86,58:2
86,59:2
86,60:3
86,61:2
86,62:3
86,63:2
86,64:7
86,68:7
86,69:7
86,70:7
86,71:7
86,72:7
86,76:2
86,78:2
86,79:2
86,80:7
86,81:2
86,82:2
87,1:4
87,2:4
87,3:4
87,4:4
87,6:4
87,8:4
87,9:6
87,10:6
87,14:6
87,15:6
87,16:3
87,17:2
87,18:2
87,19:2
87,20:2
87,21:3
87,22:3
87,23:3
87,24:3
87,25:7
87,26:8
87,27:7
87,28:4
87,29:8
87,30:3
87,31:8
87,32:8
87,33:6
87,34:6
87,35:10
87,36:10
87,37:5
87,38:5
87,39:2
87,41:11
87,42:2
87,43:2
87,44:11
87,45:2
87,51:11
87,52:11
87,53:11
87,54:1
87,55:1
87,56:1
87,57:1
87,58:5
87,59:5
87,60:6
87,61:5
87,62:6
87,63:5
87,64:10
87,65:1
87,66:1
87,67:2
87,68:10
87,69:10
87,70:10
87,71:10
87,72:10
87,76:5
87,78:5
87,79:5
87,80:10
87,81:5
87,82:5
87,83:3
87,84:3
87,85:3
87,86:3
88,1:4
88,2:4
88,3:4
88,4:4
88,6:4
88,8:4
88,9:6
88,10:6
88,14:6
88,15:6
88,16:3
88,17:2
88,18:2
88,19:2
88,20:2
88,21:3
88,22:3
88,23:3
88,24:3
88,25:7
88,26:8
88,27:7
88,28:4
88,29:8
88,30:3
88,31:8
88,32:8
88,33:6
88,34:6
88,35:10
88,36:10
88,37:5
88,38:5
88,39:2
88,41:11
88,42:2
88,43:2
88,44:11
88,45:2
88,51:11
88,52:11
88,53:11
88,54:1
88,55:1
88,56:1
88,57:1
88,58:5
88,59:5
88,60:6
88,61:5
88,62:6
88,63:5
88,64:10
88,65:1
88,66:1
88,67:2
88,68:10
88,69:10
88,70:10
88,71:10
88,72:10
88,76:5
88,78:5
88,79:5
88,80:10
88,81:5
88,82:5
88,83:3
88,84:3
88,85:3
88,86:3
89,1:4
89,2:4
89,3:4
89,4:4
89,6:4
89,8:4
89,9:6
89,10:6
89,14:6
89,15:6
89,16:3
89,17:2
89,18:2
89,19:2
89,20:2
89,21:3
89,22:3
89,23:3
89,24:3
89,25:7
89,26:8
89,27:7
89,28:4
89,29:8
89,30:3
89,31:8
89,32:8
89,33:6
89,34:6
89,35:10
89,36:10
89,37:5
89,38:5
89,39:2
89,41:11
89,42:2
89,43:2
89,44:11
89,45:2
89,51:11
89,52:11
89,53:11
89,54:1
89,55:1
89,56:1
89,57:1
89,58:5
89,59:5
89,60:6
89,61:5
89,62:6
89,63:5
89,64:10
89,65:1
89,66:1
89,67:2
89,68:10
89,69:10
89,70:10
89,71:10
89,72:10
89,76:5
89,78:5
89,79:5
89,80:10
89,81:5
89,82:5
89,83:3
89,84:3
89,85:3
89,86:3

<end>

<optimal SALBP-1 value>
20


<rand seed>
467321153

